set G := 1 2 ;
set D := 1 ;
set B_G := 1 2 ;
set B_D := 1 2 ;

param P_max :=
    1  20
    2  30 ;

param P_min :=
    1  5
    2  10 ;

param R_up :=
    1  5
    2  10 ;

param R_dn :=
    1  5
    2  10 ;

param P_0 :=
    1  10
    2  15 ;

param U_0 :=
    1  1
    2  1 ;

param P_B_G :
       1   2 :=
    1  5  15
    2 10  20 ;

param Lambda_B_G :
       1   2 :=
    1 10  13
    2 15  18 ;

param P_B_D :
      1   2 :=
    1 12  15 ;

param Lambda_B_D :
      1   2 :=
    1 20  10 ;
